10
1 0 81
2 0 269
3 0 278
3 1 25
3 2 196
4 0 163
4 2 200
5 0 313
5 3 189
5 4 137
6 0 77
6 1 292
6 2 224
6 3 194
6 5 257
7 0 36
7 1 165
7 2 207
7 3 266
7 5 71
7 6 84
8 0 170
8 1 14
8 2 7
8 3 187
8 4 60
8 5 164
8 6 167
8 7 82
9 1 70
9 2 117
9 3 32
9 4 126
9 5 97
9 6 195
9 7 243
9 8 213
